; benchmark generated from python API
(set-info :status unknown)
(declare-fun x_epoch () Int)
(declare-fun x_plus_epoch () Int)
(declare-fun x_plus_month () Int)
(declare-fun x_plus_year () Int)
(declare-fun x_plus_day () Int)
(declare-fun x_plus_1_epoch () Int)
(assert
 (>= x_epoch (- 36584)))
(assert
 (<= x_epoch 36829))
(assert
 (>= x_epoch 8341))
(assert
 (<= x_epoch 8705))
(assert
 (>= x_plus_epoch (- 36584)))
(assert
 (<= x_plus_epoch 36829))
(assert
 (let (($x126 (= x_plus_month 11)))
 (let (($x647 (= x_plus_month 9)))
 (let (($x601 (= x_plus_month 6)))
 (let (($x68 (= x_plus_month 4)))
 (let ((?x57 (ite (or $x68 $x601 $x647 $x126) 30 31)))
 (let (($x770 (= (mod x_plus_year 400) 0)))
 (let (($x1963 (= (mod x_plus_year 4) 0)))
 (let (($x292 (or (and $x1963 (and (distinct (mod x_plus_year 100) 0) true)) $x770)))
 (let (($x1920 (= x_plus_month 2)))
 (let (($x312 (>= x_plus_day 1)))
 (let (($x645 (<= x_plus_month 12)))
 (let (($x262 (>= x_plus_month 1)))
 (let (($x259 (<= x_plus_year 2100)))
 (let (($x705 (>= x_plus_year 1900)))
 (and $x705 $x259 $x262 $x645 $x312 (<= x_plus_day (ite $x1920 (ite $x292 29 28) ?x57))))))))))))))))))
(assert
 (let (($x770 (= (mod x_plus_year 400) 0)))
 (let (($x1963 (= (mod x_plus_year 4) 0)))
 (let (($x292 (or (and $x1963 (and (distinct (mod x_plus_year 100) 0) true)) $x770)))
 (let (($x142 (= 2 x_plus_month)))
 (let ((?x746 (ite $x142 (ite $x292 31 31) (ite (= 1 x_plus_month) (ite $x292 0 0) 0))))
 (let (($x151 (= 3 x_plus_month)))
 (let (($x15 (= 4 x_plus_month)))
 (let ((?x512 (ite $x15 (ite $x292 91 90) (ite $x151 (ite $x292 60 59) ?x746))))
 (let (($x324 (= 5 x_plus_month)))
 (let (($x595 (= 6 x_plus_month)))
 (let ((?x376 (ite $x595 (ite $x292 152 151) (ite $x324 (ite $x292 121 120) ?x512))))
 (let (($x431 (= 7 x_plus_month)))
 (let (($x136 (= 8 x_plus_month)))
 (let ((?x167 (ite $x136 (ite $x292 213 212) (ite $x431 (ite $x292 182 181) ?x376))))
 (let (($x318 (= 9 x_plus_month)))
 (let (($x41 (= 10 x_plus_month)))
 (let ((?x639 (ite $x41 (ite $x292 274 273) (ite $x318 (ite $x292 244 243) ?x167))))
 (let (($x724 (= 11 x_plus_month)))
 (let (($x169 (= 12 x_plus_month)))
 (let ((?x278 (ite $x169 (ite $x292 335 334) (ite $x724 (ite $x292 305 304) ?x639))))
 (let ((?x553 (+ (* 365 (- x_plus_year 1)) (div (- x_plus_year 1) 4))))
 (let ((?x411 (+ (- ?x553 (div (- x_plus_year 1) 100)) (div (- x_plus_year 1) 400))))
 (= x_plus_epoch (- (+ (+ ?x411 ?x278) (- x_plus_day 1)) 730179)))))))))))))))))))))))))
(assert
 (let ((?x641 (+ x_epoch 730179)))
 (let ((?x3127 (mod ?x641 146097)))
 (let ((?x3123 (div ?x3127 36524)))
 (let ((?x479 (ite (<= 4 ?x3123) 3 ?x3123)))
 (let ((?x652 (- ?x3127 (* ?x479 36524))))
 (let ((?x494 (mod ?x652 1461)))
 (let ((?x16 (div ?x494 365)))
 (let ((?x430 (ite (<= 4 ?x16) 3 ?x16)))
 (let ((?x1041 (+ (+ (* (div ?x641 146097) 400) (* ?x479 100)) (* (div ?x652 1461) 4))))
 (let ((?x457 (+ (+ ?x1041 ?x430) 1)))
 (let (($x2625 (or (and (= (mod ?x457 4) 0) (and (distinct (mod ?x457 100) 0) true)) (= (mod ?x457 400) 0))))
 (let ((?x2550 (- ?x494 (* ?x430 365))))
 (let ((?x2676 (ite $x2625 31 31)))
 (let (($x492 (>= ?x2550 ?x2676)))
 (let ((?x3234 (ite $x492 (+ (- ?x2550 ?x2676) 1) (+ (- ?x2550 (ite $x2625 0 0)) 1))))
 (let ((?x561 (ite $x2625 60 59)))
 (let (($x2522 (>= ?x2550 ?x561)))
 (let ((?x55 (ite $x2625 91 90)))
 (let (($x1017 (>= ?x2550 ?x55)))
 (let ((?x599 (ite $x1017 (+ (- ?x2550 ?x55) 1) (ite $x2522 (+ (- ?x2550 ?x561) 1) ?x3234))))
 (let ((?x222 (ite $x2625 121 120)))
 (let (($x28 (>= ?x2550 ?x222)))
 (let ((?x3273 (ite $x2625 152 151)))
 (let (($x1943 (>= ?x2550 ?x3273)))
 (let ((?x1910 (ite $x1943 (+ (- ?x2550 ?x3273) 1) (ite $x28 (+ (- ?x2550 ?x222) 1) ?x599))))
 (let ((?x3294 (ite $x2625 182 181)))
 (let (($x1125 (>= ?x2550 ?x3294)))
 (let ((?x2731 (ite $x2625 213 212)))
 (let (($x2525 (>= ?x2550 ?x2731)))
 (let ((?x888 (ite $x2525 (+ (- ?x2550 ?x2731) 1) (ite $x1125 (+ (- ?x2550 ?x3294) 1) ?x1910))))
 (let ((?x235 (ite $x2625 244 243)))
 (let (($x1471 (>= ?x2550 ?x235)))
 (let ((?x1414 (ite $x2625 274 273)))
 (let (($x2958 (>= ?x2550 ?x1414)))
 (let ((?x679 (ite $x2958 (+ (- ?x2550 ?x1414) 1) (ite $x1471 (+ (- ?x2550 ?x235) 1) ?x888))))
 (let ((?x1446 (ite $x2625 305 304)))
 (let (($x1110 (>= ?x2550 ?x1446)))
 (let ((?x2706 (ite $x2625 335 334)))
 (let (($x44 (>= ?x2550 ?x2706)))
 (let ((?x537 (ite $x44 (+ (- ?x2550 ?x2706) 1) (ite $x1110 (+ (- ?x2550 ?x1446) 1) ?x679))))
 (let ((?x362 (* 0 12)))
 (let ((?x314 (+ ?x362 2)))
 (let ((?x371 (ite $x28 5 (ite $x1017 4 (ite $x2522 3 (ite $x492 2 1))))))
 (let ((?x1000 (ite $x1471 9 (ite $x2525 8 (ite $x1125 7 (ite $x1943 6 ?x371))))))
 (let ((?x410 (ite $x44 12 (ite $x1110 11 (ite $x2958 10 ?x1000)))))
 (let ((?x757 (+ ?x410 ?x314)))
 (let ((?x1331 (- ?x757 1)))
 (let ((?x3125 (+ (mod ?x1331 12) 1)))
 (let ((?x2277 (ite (or (= ?x3125 4) (= ?x3125 6) (= ?x3125 9) (= ?x3125 11)) 30 31)))
 (let (($x1882 (and (= (mod (+ ?x457 (+ 0 (div ?x1331 12))) 4) 0) (and (distinct (mod (+ ?x457 (+ 0 (div ?x1331 12))) 100) 0) true))))
 (let (($x1360 (or $x1882 (= (mod (+ ?x457 (+ 0 (div ?x1331 12))) 400) 0))))
 (let ((?x2802 (ite (= ?x3125 2) (ite $x1360 29 28) ?x2277)))
 (let (($x717 (> 1 ?x537)))
 (let ((?x3136 (ite $x717 1 (ite (> ?x537 ?x2802) ?x2802 ?x537))))
 (let ((?x2419 (ite (> 1 ?x3136) 1 (ite (> ?x3136 ?x2802) ?x2802 ?x3136))))
 (let ((?x1525 (ite (= 2 ?x3125) (ite $x1360 31 31) (ite (= 1 ?x3125) (ite $x1360 0 0) 0))))
 (let ((?x826 (ite (= 4 ?x3125) (ite $x1360 91 90) (ite (= 3 ?x3125) (ite $x1360 60 59) ?x1525))))
 (let ((?x2548 (ite (= 6 ?x3125) (ite $x1360 152 151) (ite (= 5 ?x3125) (ite $x1360 121 120) ?x826))))
 (let ((?x1876 (ite (= 8 ?x3125) (ite $x1360 213 212) (ite (= 7 ?x3125) (ite $x1360 182 181) ?x2548))))
 (let ((?x1716 (ite (= 10 ?x3125) (ite $x1360 274 273) (ite (= 9 ?x3125) (ite $x1360 244 243) ?x1876))))
 (let ((?x2509 (ite (= 12 ?x3125) (ite $x1360 335 334) (ite (= 11 ?x3125) (ite $x1360 305 304) ?x1716))))
 (let ((?x3092 (+ (* 365 (- (+ ?x457 (+ 0 (div ?x1331 12))) 1)) (div (- (+ ?x457 (+ 0 (div ?x1331 12))) 1) 4))))
 (let ((?x3139 (+ (- ?x3092 (div (- (+ ?x457 (+ 0 (div ?x1331 12))) 1) 100)) (div (- (+ ?x457 (+ 0 (div ?x1331 12))) 1) 400))))
 (let ((?x1536 (+ (+ (- (+ (+ ?x3139 ?x2509) (- ?x2419 1)) 730179) 0) 730179)))
 (let ((?x1456 (mod ?x1536 146097)))
 (let ((?x955 (div ?x1456 36524)))
 (let ((?x1307 (ite (<= 4 ?x955) 3 ?x955)))
 (let ((?x2349 (- ?x1456 (* ?x1307 36524))))
 (let ((?x925 (mod ?x2349 1461)))
 (let ((?x1457 (div ?x925 365)))
 (let ((?x30 (ite (<= 4 ?x1457) 3 ?x1457)))
 (let ((?x3171 (+ (+ (* (div ?x1536 146097) 400) (* ?x1307 100)) (* (div ?x2349 1461) 4))))
 (let ((?x1490 (+ (+ ?x3171 ?x30) 1)))
 (let ((?x2249 (+ 0 (div ?x1331 12))))
 (let ((?x999 (+ ?x457 ?x2249)))
 (let (($x2351 (= 0 0)))
 (let ((?x239 (ite $x2351 ?x999 ?x1490)))
 (= x_plus_year ?x239)))))))))))))))))))))))))))))))))))))))))))))))))))))))))))))))))))))))))))))))
(assert
 (let ((?x641 (+ x_epoch 730179)))
 (let ((?x3127 (mod ?x641 146097)))
 (let ((?x3123 (div ?x3127 36524)))
 (let ((?x479 (ite (<= 4 ?x3123) 3 ?x3123)))
 (let ((?x652 (- ?x3127 (* ?x479 36524))))
 (let ((?x494 (mod ?x652 1461)))
 (let ((?x16 (div ?x494 365)))
 (let ((?x430 (ite (<= 4 ?x16) 3 ?x16)))
 (let ((?x1041 (+ (+ (* (div ?x641 146097) 400) (* ?x479 100)) (* (div ?x652 1461) 4))))
 (let ((?x457 (+ (+ ?x1041 ?x430) 1)))
 (let (($x2625 (or (and (= (mod ?x457 4) 0) (and (distinct (mod ?x457 100) 0) true)) (= (mod ?x457 400) 0))))
 (let ((?x2550 (- ?x494 (* ?x430 365))))
 (let ((?x2676 (ite $x2625 31 31)))
 (let (($x492 (>= ?x2550 ?x2676)))
 (let ((?x3234 (ite $x492 (+ (- ?x2550 ?x2676) 1) (+ (- ?x2550 (ite $x2625 0 0)) 1))))
 (let ((?x561 (ite $x2625 60 59)))
 (let (($x2522 (>= ?x2550 ?x561)))
 (let ((?x55 (ite $x2625 91 90)))
 (let (($x1017 (>= ?x2550 ?x55)))
 (let ((?x599 (ite $x1017 (+ (- ?x2550 ?x55) 1) (ite $x2522 (+ (- ?x2550 ?x561) 1) ?x3234))))
 (let ((?x222 (ite $x2625 121 120)))
 (let (($x28 (>= ?x2550 ?x222)))
 (let ((?x3273 (ite $x2625 152 151)))
 (let (($x1943 (>= ?x2550 ?x3273)))
 (let ((?x1910 (ite $x1943 (+ (- ?x2550 ?x3273) 1) (ite $x28 (+ (- ?x2550 ?x222) 1) ?x599))))
 (let ((?x3294 (ite $x2625 182 181)))
 (let (($x1125 (>= ?x2550 ?x3294)))
 (let ((?x2731 (ite $x2625 213 212)))
 (let (($x2525 (>= ?x2550 ?x2731)))
 (let ((?x888 (ite $x2525 (+ (- ?x2550 ?x2731) 1) (ite $x1125 (+ (- ?x2550 ?x3294) 1) ?x1910))))
 (let ((?x235 (ite $x2625 244 243)))
 (let (($x1471 (>= ?x2550 ?x235)))
 (let ((?x1414 (ite $x2625 274 273)))
 (let (($x2958 (>= ?x2550 ?x1414)))
 (let ((?x679 (ite $x2958 (+ (- ?x2550 ?x1414) 1) (ite $x1471 (+ (- ?x2550 ?x235) 1) ?x888))))
 (let ((?x1446 (ite $x2625 305 304)))
 (let (($x1110 (>= ?x2550 ?x1446)))
 (let ((?x2706 (ite $x2625 335 334)))
 (let (($x44 (>= ?x2550 ?x2706)))
 (let ((?x537 (ite $x44 (+ (- ?x2550 ?x2706) 1) (ite $x1110 (+ (- ?x2550 ?x1446) 1) ?x679))))
 (let ((?x362 (* 0 12)))
 (let ((?x314 (+ ?x362 2)))
 (let ((?x371 (ite $x28 5 (ite $x1017 4 (ite $x2522 3 (ite $x492 2 1))))))
 (let ((?x1000 (ite $x1471 9 (ite $x2525 8 (ite $x1125 7 (ite $x1943 6 ?x371))))))
 (let ((?x410 (ite $x44 12 (ite $x1110 11 (ite $x2958 10 ?x1000)))))
 (let ((?x757 (+ ?x410 ?x314)))
 (let ((?x1331 (- ?x757 1)))
 (let ((?x3125 (+ (mod ?x1331 12) 1)))
 (let ((?x2277 (ite (or (= ?x3125 4) (= ?x3125 6) (= ?x3125 9) (= ?x3125 11)) 30 31)))
 (let (($x1882 (and (= (mod (+ ?x457 (+ 0 (div ?x1331 12))) 4) 0) (and (distinct (mod (+ ?x457 (+ 0 (div ?x1331 12))) 100) 0) true))))
 (let (($x1360 (or $x1882 (= (mod (+ ?x457 (+ 0 (div ?x1331 12))) 400) 0))))
 (let ((?x2802 (ite (= ?x3125 2) (ite $x1360 29 28) ?x2277)))
 (let (($x717 (> 1 ?x537)))
 (let ((?x3136 (ite $x717 1 (ite (> ?x537 ?x2802) ?x2802 ?x537))))
 (let ((?x2419 (ite (> 1 ?x3136) 1 (ite (> ?x3136 ?x2802) ?x2802 ?x3136))))
 (let ((?x1525 (ite (= 2 ?x3125) (ite $x1360 31 31) (ite (= 1 ?x3125) (ite $x1360 0 0) 0))))
 (let ((?x826 (ite (= 4 ?x3125) (ite $x1360 91 90) (ite (= 3 ?x3125) (ite $x1360 60 59) ?x1525))))
 (let ((?x2548 (ite (= 6 ?x3125) (ite $x1360 152 151) (ite (= 5 ?x3125) (ite $x1360 121 120) ?x826))))
 (let ((?x1876 (ite (= 8 ?x3125) (ite $x1360 213 212) (ite (= 7 ?x3125) (ite $x1360 182 181) ?x2548))))
 (let ((?x1716 (ite (= 10 ?x3125) (ite $x1360 274 273) (ite (= 9 ?x3125) (ite $x1360 244 243) ?x1876))))
 (let ((?x2509 (ite (= 12 ?x3125) (ite $x1360 335 334) (ite (= 11 ?x3125) (ite $x1360 305 304) ?x1716))))
 (let ((?x3092 (+ (* 365 (- (+ ?x457 (+ 0 (div ?x1331 12))) 1)) (div (- (+ ?x457 (+ 0 (div ?x1331 12))) 1) 4))))
 (let ((?x3139 (+ (- ?x3092 (div (- (+ ?x457 (+ 0 (div ?x1331 12))) 1) 100)) (div (- (+ ?x457 (+ 0 (div ?x1331 12))) 1) 400))))
 (let ((?x1536 (+ (+ (- (+ (+ ?x3139 ?x2509) (- ?x2419 1)) 730179) 0) 730179)))
 (let ((?x1456 (mod ?x1536 146097)))
 (let ((?x955 (div ?x1456 36524)))
 (let ((?x1307 (ite (<= 4 ?x955) 3 ?x955)))
 (let ((?x2349 (- ?x1456 (* ?x1307 36524))))
 (let ((?x925 (mod ?x2349 1461)))
 (let ((?x1457 (div ?x925 365)))
 (let ((?x30 (ite (<= 4 ?x1457) 3 ?x1457)))
 (let ((?x3171 (+ (+ (* (div ?x1536 146097) 400) (* ?x1307 100)) (* (div ?x2349 1461) 4))))
 (let ((?x1490 (+ (+ ?x3171 ?x30) 1)))
 (let (($x2028 (or (and (= (mod ?x1490 4) 0) (and (distinct (mod ?x1490 100) 0) true)) (= (mod ?x1490 400) 0))))
 (let ((?x1971 (ite $x2028 31 31)))
 (let ((?x844 (- ?x925 (* ?x30 365))))
 (let (($x1982 (>= ?x844 ?x1971)))
 (let ((?x163 (ite $x2028 60 59)))
 (let (($x2375 (>= ?x844 ?x163)))
 (let ((?x2628 (ite $x2028 91 90)))
 (let (($x1459 (>= ?x844 ?x2628)))
 (let ((?x1925 (ite $x2028 121 120)))
 (let (($x2429 (>= ?x844 ?x1925)))
 (let ((?x1736 (ite $x2429 5 (ite $x1459 4 (ite $x2375 3 (ite $x1982 2 1))))))
 (let ((?x1280 (ite $x2028 152 151)))
 (let (($x3291 (>= ?x844 ?x1280)))
 (let ((?x2231 (ite $x2028 182 181)))
 (let (($x2577 (>= ?x844 ?x2231)))
 (let ((?x2125 (ite $x2028 213 212)))
 (let (($x1697 (>= ?x844 ?x2125)))
 (let ((?x2801 (ite $x2028 244 243)))
 (let (($x3301 (>= ?x844 ?x2801)))
 (let ((?x2358 (ite $x3301 9 (ite $x1697 8 (ite $x2577 7 (ite $x3291 6 ?x1736))))))
 (let ((?x3231 (ite $x2028 274 273)))
 (let (($x2492 (>= ?x844 ?x3231)))
 (let ((?x953 (ite $x2028 305 304)))
 (let (($x1930 (>= ?x844 ?x953)))
 (let ((?x2155 (ite $x2028 335 334)))
 (let (($x656 (>= ?x844 ?x2155)))
 (let (($x2351 (= 0 0)))
 (let ((?x1115 (ite $x2351 ?x3125 (ite $x656 12 (ite $x1930 11 (ite $x2492 10 ?x2358))))))
 (= x_plus_month ?x1115)))))))))))))))))))))))))))))))))))))))))))))))))))))))))))))))))))))))))))))))))))))))))))))))))))))))
(assert
 (let ((?x641 (+ x_epoch 730179)))
 (let ((?x3127 (mod ?x641 146097)))
 (let ((?x3123 (div ?x3127 36524)))
 (let ((?x479 (ite (<= 4 ?x3123) 3 ?x3123)))
 (let ((?x652 (- ?x3127 (* ?x479 36524))))
 (let ((?x494 (mod ?x652 1461)))
 (let ((?x16 (div ?x494 365)))
 (let ((?x430 (ite (<= 4 ?x16) 3 ?x16)))
 (let ((?x1041 (+ (+ (* (div ?x641 146097) 400) (* ?x479 100)) (* (div ?x652 1461) 4))))
 (let ((?x457 (+ (+ ?x1041 ?x430) 1)))
 (let (($x2625 (or (and (= (mod ?x457 4) 0) (and (distinct (mod ?x457 100) 0) true)) (= (mod ?x457 400) 0))))
 (let ((?x2550 (- ?x494 (* ?x430 365))))
 (let ((?x2676 (ite $x2625 31 31)))
 (let (($x492 (>= ?x2550 ?x2676)))
 (let ((?x3234 (ite $x492 (+ (- ?x2550 ?x2676) 1) (+ (- ?x2550 (ite $x2625 0 0)) 1))))
 (let ((?x561 (ite $x2625 60 59)))
 (let (($x2522 (>= ?x2550 ?x561)))
 (let ((?x55 (ite $x2625 91 90)))
 (let (($x1017 (>= ?x2550 ?x55)))
 (let ((?x599 (ite $x1017 (+ (- ?x2550 ?x55) 1) (ite $x2522 (+ (- ?x2550 ?x561) 1) ?x3234))))
 (let ((?x222 (ite $x2625 121 120)))
 (let (($x28 (>= ?x2550 ?x222)))
 (let ((?x3273 (ite $x2625 152 151)))
 (let (($x1943 (>= ?x2550 ?x3273)))
 (let ((?x1910 (ite $x1943 (+ (- ?x2550 ?x3273) 1) (ite $x28 (+ (- ?x2550 ?x222) 1) ?x599))))
 (let ((?x3294 (ite $x2625 182 181)))
 (let (($x1125 (>= ?x2550 ?x3294)))
 (let ((?x2731 (ite $x2625 213 212)))
 (let (($x2525 (>= ?x2550 ?x2731)))
 (let ((?x888 (ite $x2525 (+ (- ?x2550 ?x2731) 1) (ite $x1125 (+ (- ?x2550 ?x3294) 1) ?x1910))))
 (let ((?x235 (ite $x2625 244 243)))
 (let (($x1471 (>= ?x2550 ?x235)))
 (let ((?x1414 (ite $x2625 274 273)))
 (let (($x2958 (>= ?x2550 ?x1414)))
 (let ((?x679 (ite $x2958 (+ (- ?x2550 ?x1414) 1) (ite $x1471 (+ (- ?x2550 ?x235) 1) ?x888))))
 (let ((?x1446 (ite $x2625 305 304)))
 (let (($x1110 (>= ?x2550 ?x1446)))
 (let ((?x2706 (ite $x2625 335 334)))
 (let (($x44 (>= ?x2550 ?x2706)))
 (let ((?x537 (ite $x44 (+ (- ?x2550 ?x2706) 1) (ite $x1110 (+ (- ?x2550 ?x1446) 1) ?x679))))
 (let ((?x362 (* 0 12)))
 (let ((?x314 (+ ?x362 2)))
 (let ((?x371 (ite $x28 5 (ite $x1017 4 (ite $x2522 3 (ite $x492 2 1))))))
 (let ((?x1000 (ite $x1471 9 (ite $x2525 8 (ite $x1125 7 (ite $x1943 6 ?x371))))))
 (let ((?x410 (ite $x44 12 (ite $x1110 11 (ite $x2958 10 ?x1000)))))
 (let ((?x757 (+ ?x410 ?x314)))
 (let ((?x1331 (- ?x757 1)))
 (let ((?x3125 (+ (mod ?x1331 12) 1)))
 (let ((?x2277 (ite (or (= ?x3125 4) (= ?x3125 6) (= ?x3125 9) (= ?x3125 11)) 30 31)))
 (let (($x1882 (and (= (mod (+ ?x457 (+ 0 (div ?x1331 12))) 4) 0) (and (distinct (mod (+ ?x457 (+ 0 (div ?x1331 12))) 100) 0) true))))
 (let (($x1360 (or $x1882 (= (mod (+ ?x457 (+ 0 (div ?x1331 12))) 400) 0))))
 (let ((?x2802 (ite (= ?x3125 2) (ite $x1360 29 28) ?x2277)))
 (let (($x717 (> 1 ?x537)))
 (let ((?x3136 (ite $x717 1 (ite (> ?x537 ?x2802) ?x2802 ?x537))))
 (let ((?x2419 (ite (> 1 ?x3136) 1 (ite (> ?x3136 ?x2802) ?x2802 ?x3136))))
 (let ((?x1525 (ite (= 2 ?x3125) (ite $x1360 31 31) (ite (= 1 ?x3125) (ite $x1360 0 0) 0))))
 (let ((?x826 (ite (= 4 ?x3125) (ite $x1360 91 90) (ite (= 3 ?x3125) (ite $x1360 60 59) ?x1525))))
 (let ((?x2548 (ite (= 6 ?x3125) (ite $x1360 152 151) (ite (= 5 ?x3125) (ite $x1360 121 120) ?x826))))
 (let ((?x1876 (ite (= 8 ?x3125) (ite $x1360 213 212) (ite (= 7 ?x3125) (ite $x1360 182 181) ?x2548))))
 (let ((?x1716 (ite (= 10 ?x3125) (ite $x1360 274 273) (ite (= 9 ?x3125) (ite $x1360 244 243) ?x1876))))
 (let ((?x2509 (ite (= 12 ?x3125) (ite $x1360 335 334) (ite (= 11 ?x3125) (ite $x1360 305 304) ?x1716))))
 (let ((?x3092 (+ (* 365 (- (+ ?x457 (+ 0 (div ?x1331 12))) 1)) (div (- (+ ?x457 (+ 0 (div ?x1331 12))) 1) 4))))
 (let ((?x3139 (+ (- ?x3092 (div (- (+ ?x457 (+ 0 (div ?x1331 12))) 1) 100)) (div (- (+ ?x457 (+ 0 (div ?x1331 12))) 1) 400))))
 (let ((?x1536 (+ (+ (- (+ (+ ?x3139 ?x2509) (- ?x2419 1)) 730179) 0) 730179)))
 (let ((?x1456 (mod ?x1536 146097)))
 (let ((?x955 (div ?x1456 36524)))
 (let ((?x1307 (ite (<= 4 ?x955) 3 ?x955)))
 (let ((?x2349 (- ?x1456 (* ?x1307 36524))))
 (let ((?x925 (mod ?x2349 1461)))
 (let ((?x1457 (div ?x925 365)))
 (let ((?x30 (ite (<= 4 ?x1457) 3 ?x1457)))
 (let ((?x3171 (+ (+ (* (div ?x1536 146097) 400) (* ?x1307 100)) (* (div ?x2349 1461) 4))))
 (let ((?x1490 (+ (+ ?x3171 ?x30) 1)))
 (let (($x2028 (or (and (= (mod ?x1490 4) 0) (and (distinct (mod ?x1490 100) 0) true)) (= (mod ?x1490 400) 0))))
 (let ((?x844 (- ?x925 (* ?x30 365))))
 (let ((?x1971 (ite $x2028 31 31)))
 (let (($x1982 (>= ?x844 ?x1971)))
 (let ((?x347 (ite $x1982 (+ (- ?x844 ?x1971) 1) (+ (- ?x844 (ite $x2028 0 0)) 1))))
 (let ((?x163 (ite $x2028 60 59)))
 (let (($x2375 (>= ?x844 ?x163)))
 (let ((?x2628 (ite $x2028 91 90)))
 (let (($x1459 (>= ?x844 ?x2628)))
 (let ((?x2584 (ite $x1459 (+ (- ?x844 ?x2628) 1) (ite $x2375 (+ (- ?x844 ?x163) 1) ?x347))))
 (let ((?x1925 (ite $x2028 121 120)))
 (let (($x2429 (>= ?x844 ?x1925)))
 (let ((?x1280 (ite $x2028 152 151)))
 (let (($x3291 (>= ?x844 ?x1280)))
 (let ((?x2938 (ite $x3291 (+ (- ?x844 ?x1280) 1) (ite $x2429 (+ (- ?x844 ?x1925) 1) ?x2584))))
 (let ((?x2231 (ite $x2028 182 181)))
 (let (($x2577 (>= ?x844 ?x2231)))
 (let ((?x2125 (ite $x2028 213 212)))
 (let (($x1697 (>= ?x844 ?x2125)))
 (let ((?x1923 (ite $x1697 (+ (- ?x844 ?x2125) 1) (ite $x2577 (+ (- ?x844 ?x2231) 1) ?x2938))))
 (let ((?x2801 (ite $x2028 244 243)))
 (let (($x3301 (>= ?x844 ?x2801)))
 (let ((?x3231 (ite $x2028 274 273)))
 (let (($x2492 (>= ?x844 ?x3231)))
 (let ((?x2686 (ite $x2492 (+ (- ?x844 ?x3231) 1) (ite $x3301 (+ (- ?x844 ?x2801) 1) ?x1923))))
 (let ((?x953 (ite $x2028 305 304)))
 (let (($x1930 (>= ?x844 ?x953)))
 (let ((?x2155 (ite $x2028 335 334)))
 (let (($x656 (>= ?x844 ?x2155)))
 (let ((?x850 (ite $x656 (+ (- ?x844 ?x2155) 1) (ite $x1930 (+ (- ?x844 ?x953) 1) ?x2686))))
 (let (($x2351 (= 0 0)))
 (let ((?x415 (ite $x2351 ?x2419 ?x850)))
 (= x_plus_day ?x415)))))))))))))))))))))))))))))))))))))))))))))))))))))))))))))))))))))))))))))))))))))))))))))))))))))))))))
(assert
 (>= x_plus_1_epoch (- 36584)))
(assert
 (<= x_plus_1_epoch 36829))
(assert
 (= x_plus_1_epoch (+ x_epoch 61)))
(assert
 (= x_plus_epoch x_plus_1_epoch))
(check-sat)
